
******************************************************************************
This program contains Ipopt, a library for large-scale nonlinear optimization.
 Ipopt is released as open source code under the Eclipse Public License (EPL).
         For more information visit http://projects.coin-or.org/Ipopt

This version of Ipopt was compiled from source code available at
    https://github.com/IDAES/Ipopt as part of the Institute for the Design of
    Advanced Energy Systems Process Systems Engineering Framework (IDAES PSE
    Framework) Copyright (c) 2018-2019. See https://github.com/IDAES/idaes-pse.

This version of Ipopt was compiled using HSL, a collection of Fortran codes
    for large-scale scientific computation.  All technical papers, sales and
    publicity material resulting from use of the HSL codes within IPOPT must
    contain the following acknowledgement:
        HSL, a collection of Fortran codes for large-scale scientific
        computation. See http://www.hsl.rl.ac.uk.
******************************************************************************

This is Ipopt version 3.13.2, running with linear solver ma27.

Number of nonzeros in equality constraint Jacobian...:      808
Number of nonzeros in inequality constraint Jacobian.:        0
Number of nonzeros in Lagrangian Hessian.............:      702

Total number of variables............................:      351
                     variables with only lower bounds:      108
                variables with lower and upper bounds:      189
                     variables with only upper bounds:        0
Total number of equality constraints.................:      350
Total number of inequality constraints...............:        0
        inequality constraints with only lower bounds:        0
   inequality constraints with lower and upper bounds:        0
        inequality constraints with only upper bounds:        0

iter    objective    inf_pr   inf_du lg(mu)  ||d||  lg(rg) alpha_du alpha_pr  ls
   0  0.0000000e+00 4.50e-01 1.01e-28  -1.0 0.00e+00    -  0.00e+00 0.00e+00   0
   1  3.6040682e+00 1.38e+00 3.98e+04  -1.0 2.60e+05    -  4.71e-01 4.47e-01h  1
   2  4.0002563e+00 1.32e+00 3.81e+04  -1.0 1.67e+05    -  7.90e-01 3.83e-02h  1
   3  4.9009613e+00 1.21e+00 3.52e+04  -1.0 2.21e+05    -  7.91e-01 7.93e-02h  1
   4  2.7101394e+01 1.24e-01 6.21e+03  -1.0 2.08e+05    -  8.08e-01 9.90e-01h  1
   5  3.1290589e+01 1.36e-02 1.12e+03  -1.0 2.58e+04    -  9.71e-01 9.90e-01h  1
   6  3.1382723e+01 3.87e-04 1.43e+01  -1.0 5.51e+02    -  9.90e-01 9.90e-01h  1
   7  3.1383691e+01 3.81e-04 1.99e+07  -1.0 7.93e+02    -  9.90e-01 1.55e-02f  7
   8  3.1387820e+01 3.69e-04 3.93e+07  -1.0 1.70e+03    -  9.94e-01 3.09e-02f  6
   9  3.1515606e+01 1.19e-04 6.07e+05  -1.0 1.66e+03    -  1.00e+00 9.90e-01H  1
iter    objective    inf_pr   inf_du lg(mu)  ||d||  lg(rg) alpha_du alpha_pr  ls
  10  3.1515626e+01 1.21e-06 2.14e+07  -1.0 1.45e-01    -  1.00e+00 9.90e-01h  1
  11  3.1515623e+01 1.21e-08 2.14e+09  -1.0 3.73e-02    -  1.00e+00 9.90e-01h  1
  12  3.1515623e+01 1.21e-10 2.14e+11  -1.0 3.74e-04    -  1.00e+00 9.90e-01h  1
In iteration 12, 27 Slacks too small, adjusting variable bounds
  13  3.1515623e+01 2.33e-12 2.14e+13  -1.0 3.73e-06    -  1.00e+00 9.90e-01h  1
  14  3.1515623e+01 3.72e-12 1.21e-01  -1.0 3.68e-07    -  1.00e+00 1.00e+00h  1
  15  3.1515619e+01 2.65e-12 2.18e+13  -9.0 2.22e+03    -  9.97e-01 2.32e-05f 16
  16  3.1515615e+01 2.26e-12 2.18e+13  -9.0 1.72e+03    -  9.98e-01 3.01e-05f 16
  17  3.1515611e+01 3.62e-12 2.18e+13  -9.0 1.69e+03    -  1.00e+00 3.05e-05f 16
  18  3.1515609e+01 3.47e-12 2.18e+13  -9.0 1.69e+03    -  1.00e+00 1.53e-05f 17
  19  3.1515608e+01 2.95e-12 2.18e+13  -9.0 1.69e+03    -  1.00e+00 7.63e-06f 18
iter    objective    inf_pr   inf_du lg(mu)  ||d||  lg(rg) alpha_du alpha_pr  ls
  20  3.1383775e+01 1.29e-03 7.84e+07  -9.0 1.69e+03    -  1.00e+00 1.00e+00f  1
  21  3.1382132e+01 1.28e-07 1.05e-03  -9.0 2.01e+01    -  1.00e+00 1.00e+00h  1
  22  3.1382132e+01 1.05e-12 2.91e-11  -9.0 2.81e-04    -  1.00e+00 1.00e+00h  1

Number of Iterations....: 22

                                   (scaled)                 (unscaled)
Objective...............:   3.1382131859764662e+01    3.1382131859764662e+01
Dual infeasibility......:   2.9103830456733704e-11    2.9103830456733704e-11
Constraint violation....:   1.0538236949741986e-12    1.0538236949741986e-12
Complementarity.........:   9.0909108497979527e-10    9.0909108497979527e-10
Overall NLP error.......:   8.3254525416174556e-12    9.0909108497979527e-10


Number of objective function evaluations             = 135
Number of objective gradient evaluations             = 23
Number of equality constraint evaluations            = 135
Number of inequality constraint evaluations          = 0
Number of equality constraint Jacobian evaluations   = 23
Number of inequality constraint Jacobian evaluations = 0
Number of Lagrangian Hessian evaluations             = 22
Total CPU secs in IPOPT (w/o function evaluations)   =      0.047
Total CPU secs in NLP function evaluations           =      0.941

EXIT: Optimal Solution Found.
